NAME: ulysses16.tsp
TYPE: TSP
COMMENT: Odyssey of Ulysses (Groetschel/Padberg)
DIMENSION: 16
EDGE_WEIGHT_TYPE: EUC_2D
NODE_COORD_SECTION
1 4689.496035 1745.871528
2 4408.385155 2164.417965
3 4375.227840 2070.029528
4 4724.604071 2017.163944
5 5224.254392 972.031310
6 4936.517549 1066.411047
7 4861.432090 1132.185149
8 4734.948799 1764.675460
9 4731.131482 757.804485
10 4671.971918 1082.904945
11 5127.740735 -467.563350
12 4815.166445 1301.936769
13 4831.403057 1326.255129
14 4877.671425 1322.491917
15 5026.201006 1283.031205
16 4641.640383 1649.163346
EOF

